
Gurobi 6.0.4 (win64) logging started 06/21/15 19:09:26

Read LP format model from file C:\MT\repository\VRPTWMS\instances\mip\fuel\N6-C_DV100-C_SV30_F6_3_No_1.lp
Reading time = 0.00 seconds
(null): 253 rows, 128 columns, 957 nonzeros
Optimize a model with 253 rows, 128 columns and 957 nonzeros
Model has 216 quadratic constraints
Coefficient statistics:
  Matrix range    [1e+00, 1e+06]
  Objective range [7e+04, 1e+07]
  Bounds range    [1e+00, 1e+06]
  RHS range       [1e+00, 1e+06]
Presolve removed 52 rows and 26 columns
Presolve time: 0.08s
Presolved: 491 rows, 247 columns, 2430 nonzeros
Variable types: 145 continuous, 102 integer (79 binary)
Found heuristic solution: objective 2.138750e+07

Root relaxation: objective 1.371360e+07, 46 iterations, 0.00 seconds

    Nodes    |    Current Node    |     Objective Bounds      |     Work
 Expl Unexpl |  Obj  Depth IntInf | Incumbent    BestBd   Gap | It/Node Time

     0     0 1.3714e+07    0   17 2.1388e+07 1.3714e+07  35.9%     -    0s
*    0     0               0    2.131880e+07 2.1319e+07  0.00%     -    0s

Cutting planes:
  Gomory: 1
  Cover: 1
  Clique: 2
  MIR: 4

Explored 0 nodes (71 simplex iterations) in 0.09 seconds
Thread count was 2 (of 4 available processors)

Optimal solution found (tolerance 1.00e-04)
Best objective 2.131880000000e+07, best bound 2.131880000000e+07, gap 0.0%
k_c1	50000.0
k_c2	79999.99999999994
k_c3	99999.99999999994
k_c4	90000.0
k_c5	959999.9999999986
k_c6	39999.99999999994
k_dN	-0.0
o_1	0.0
o_2	0.0
o_3	-0.0
o_4	-0.0
o_5	-0.0
o_6	-0.0
p_1	0.0
p_2	0.0
p_3	-0.0
p_4	-0.0
p_5	-0.0
p_6	-0.0
phi_c1	17775.0
phi_c2	36759.000000000015
phi_c3	42438.999999999985
phi_c4	33048.00000000003
phi_c5	45530.0
phi_c6	31367.000000000015
phi_d0	60000.0
phi_dN	-0.0
tauD_c1	650000.0
tauD_c2	500000.0
tauD_c3	250000.0
tauD_c4	450000.0
tauD_c5	100000.0
tauD_c6	570150.0000000001
tauD_d0	-0.0
tauD_dN	1000000.0
tauS_c1	-0.0
tauS_c2	-0.0
tauS_c3	-0.0
tauS_c4	-0.0
tauS_c5	-0.0
tauS_c6	-0.0
tauS_d0	-0.0
tauS_dN	-0.0
x_c1_dN	1.0
x_c2_c6	1.0
x_c3_c2	1.0
x_c4_c1	1.0
x_c5_c4	1.0
x_c6_dN	1.0
x_d0_c3	1.0
x_d0_c5	1.0
